benchmarks/bfuzz0/1177123912248112724469730125147242805.smt2
(set-logic QF_FP)
(declare-const x0 (_ FloatingPoint 8 24))
(declare-const x1 (_ FloatingPoint 8 24))
(declare-const x2 (_ FloatingPoint 8 24))
(declare-const x3 (_ FloatingPoint 8 24))
(declare-const x4 (_ FloatingPoint 8 24))
(declare-const x5 (_ FloatingPoint 8 24))
(declare-const x6 (_ FloatingPoint 8 24))
(declare-const x7 (_ FloatingPoint 8 24))
(declare-const x8 (_ FloatingPoint 8 24))
(declare-const x9 (_ FloatingPoint 8 24))
(declare-const x10 (_ FloatingPoint 8 24))
(declare-const x11 (_ FloatingPoint 8 24))
(declare-const x12 (_ FloatingPoint 8 24))
(declare-const x13 (_ FloatingPoint 8 24))
(declare-const x14 (_ FloatingPoint 8 24))
(assert (fp.lt (fp.sub RNE (fp.neg (fp.neg x11)) (fp.sub RNE (fp.sub RNE x2 x4) (fp.div RNE x11 x2))) (fp.add RNE (fp.mul RNE (fp.sub RNE x14 x14) (fp.add RNE x5 x14)) (fp.div RNE (fp.sub RNE x0 x14) (fp.neg x4)))))
(assert (fp.geq (fp.add RNE (fp.mul RNE (fp.add RNE x14 x5) (fp.mul RNE x9 x13)) (fp.neg (fp.div RNE x9 x3))) (fp.add RNE (fp.neg (fp.add RNE x5 x13)) (fp.add RNE (fp.add RNE x7 x9) (fp.div RNE x3 x2)))))
(check-sat)
