db/data/1177123912248112724469730125147242805.z3.out
sat
-------------------
28.476135398
